Version identifier: 22.1.0.0 | 2022-03-09 | 1a383f8ce
CPXPARAM_Threads                                 1
CPXPARAM_MIP_Strategy_VariableSelect             3
CPXPARAM_TimeLimit                               599.68400718099997
1 of 1 MIP starts provided solutions.
MIP start 'm1' defined initial solution with objective 92.0000.
Tried aggregator 1 time.
MIP Presolve eliminated 13 rows and 0 columns.
MIP Presolve modified 204 coefficients.
Reduced MIP has 613 rows, 2600 columns, and 32613 nonzeros.
Reduced MIP has 2600 binaries, 0 generals, 0 SOSs, and 0 indicators.
Presolve time = 0.05 sec. (65.92 ticks)
Probing time = 0.01 sec. (9.54 ticks)
Tried aggregator 1 time.
Detecting symmetries...
MIP Presolve modified 11 coefficients.
Reduced MIP has 613 rows, 2600 columns, and 33013 nonzeros.
Reduced MIP has 2600 binaries, 0 generals, 0 SOSs, and 0 indicators.
Presolve time = 0.03 sec. (34.55 ticks)
Probing time = 0.01 sec. (9.61 ticks)
Clique table members: 399.
MIP emphasis: balance optimality and feasibility.
MIP search method: dynamic search.
Parallel mode: none, using 1 thread.
Root relaxation solution time = 0.26 sec. (326.98 ticks)

        Nodes                                         Cuts/
   Node  Left     Objective  IInf  Best Integer    Best Bound    ItCnt     Gap

*     0+    0                           92.0000     5050.0000              --- 
      0     0      100.0000   441       92.0000      100.0000     2293    8.70%
      0     0      100.0000   408       92.0000      Cuts: 13     4213    8.70%
      0     0      100.0000   383       92.0000       Cuts: 5     6425    8.70%
      0     0      100.0000   323       92.0000       Cuts: 6     9457    8.70%
      0     0      100.0000   346       92.0000      Cuts: 17    11415    8.70%
      0     0      100.0000   259       92.0000    Cliques: 2    13083    8.70%
Detecting symmetries...
      0     0      100.0000   438       92.0000      Cuts: 13    15049    8.70%
*     0+    0                           93.0000      100.0000             7.53%
      0     0        cutoff             93.0000      100.0000    15049    7.53%
Detecting symmetries...
      0     2      100.0000   182       93.0000      100.0000    15049    7.53%
Elapsed time = 16.84 sec. (19702.27 ticks, tree = 0.01 MB, solutions = 2)
      1     2       99.9116   396       93.0000      100.0000    18697    7.53%
      2     3      100.0000   197       93.0000      100.0000    20611    7.53%
      4     5      100.0000   266       93.0000      100.0000    22888    7.53%
      6     6       99.8824   466       93.0000      100.0000    27205    7.53%
      7     7      100.0000   184       93.0000      100.0000    28162    7.53%
      8     8      100.0000   339       93.0000      100.0000    31677    7.53%
      9     9      100.0000   352       93.0000      100.0000    33902    7.53%
     10    10      100.0000   302       93.0000      100.0000    36823    7.53%
     11    11      100.0000   297       93.0000      100.0000    39363    7.53%
     13    12      100.0000   334       93.0000      100.0000    45707    7.53%
Elapsed time = 22.08 sec. (25872.24 ticks, tree = 0.03 MB, solutions = 2)
     16    15      100.0000   242       93.0000      100.0000    50032    7.53%
     20    17       98.7895   407       93.0000      100.0000    56520    7.53%
     24    19       98.7460   404       93.0000      100.0000    62304    7.53%
     29    24       99.7222   450       93.0000      100.0000    67917    7.53%
     32    26      100.0000   372       93.0000      100.0000    68983    7.53%
     37    31      100.0000   357       93.0000      100.0000    75555    7.53%
     40    33       98.8462   383       93.0000      100.0000    76818    7.53%
     44    36      100.0000   310       93.0000      100.0000    80941    7.53%
     50    40       98.9375   351       93.0000      100.0000    88006    7.53%
     56    44      100.0000   316       93.0000      100.0000    94934    7.53%
Elapsed time = 31.55 sec. (37229.79 ticks, tree = 0.07 MB, solutions = 2)
     62    50       99.6739   385       93.0000      100.0000    98995    7.53%
     68    55       99.6053   306       93.0000      100.0000   101660    7.53%
     72    57       99.0000   390       93.0000      100.0000   108593    7.53%
     78    62      100.0000   275       93.0000      100.0000   110791    7.53%
     82    66       99.5349   291       93.0000      100.0000   115717    7.53%
     88    71       99.5455   386       93.0000      100.0000   123778    7.53%
     91    74       99.5833   336       93.0000      100.0000   131263    7.53%
     99    78       98.0000   329       93.0000      100.0000   134663    7.53%
    107    85       98.0000   323       93.0000      100.0000   135958    7.53%
    115    90       98.0000   287       93.0000      100.0000   138396    7.53%
Elapsed time = 40.09 sec. (47611.32 ticks, tree = 0.13 MB, solutions = 2)
    123    96       97.0000   302       93.0000      100.0000   140342    7.53%
    132   102       97.0000   261       93.0000      100.0000   142902    7.53%
    140   109       98.0000   224       93.0000      100.0000   144829    7.53%
    154   117       97.0000   183       93.0000      100.0000   148226    7.53%
    167   129       96.0000    33       93.0000      100.0000   150206    7.53%
*   172   105      integral     0       96.0000      100.0000   150509    4.17%
    173   105      100.0000   368       96.0000      100.0000   153366    4.17%
    179   111      100.0000   360       96.0000      100.0000   154531    4.17%
    180   112      100.0000   309       96.0000      100.0000   155593    4.17%
    183   114      100.0000   321       96.0000      100.0000   159527    4.17%
    188   116       99.0000   392       96.0000      100.0000   162926    4.17%
Elapsed time = 49.40 sec. (58558.82 ticks, tree = 0.16 MB, solutions = 3)
    191   118      100.0000   310       96.0000      100.0000   164768    4.17%
    196   121       99.0000   394       96.0000      100.0000   168322    4.17%
    200   124       98.8824   321       96.0000      100.0000   170269    4.17%
    205   128      100.0000   308       96.0000      100.0000   172598    4.17%
    210   130       99.0000   311       96.0000      100.0000   176524    4.17%
    216   135      100.0000   324       96.0000      100.0000   178534    4.17%
    220   137       98.8750   356       96.0000      100.0000   180514    4.17%
    225   140       99.0000   389       96.0000      100.0000   183126    4.17%
    231   144       99.0000   365       96.0000      100.0000   186094    4.17%
    236   147       99.0000   420       96.0000      100.0000   188093    4.17%
Elapsed time = 57.62 sec. (69159.57 ticks, tree = 0.19 MB, solutions = 3)
    241   149       98.0000   343       96.0000      100.0000   190211    4.17%
    247   154       98.0000   255       96.0000      100.0000   192811    4.17%
    255   159       97.0000   239       96.0000      100.0000   195559    4.17%
    260   163       98.0000   207       96.0000      100.0000   197094    4.17%
    272   170       97.0000   151       96.0000      100.0000   199676    4.17%
    284   180       97.0000    51       96.0000      100.0000   202275    4.17%
    299   183      100.0000   243       96.0000      100.0000   207716    4.17%
    303   186       99.0000   390       96.0000      100.0000   211118    4.17%
    309   192       99.0000   313       96.0000      100.0000   212564    4.17%
    315   198       99.0000   179       96.0000      100.0000   215425    4.17%
Elapsed time = 66.85 sec. (79944.62 ticks, tree = 0.25 MB, solutions = 3)
    323   205       98.0000   192       96.0000      100.0000   217926    4.17%
    335   217       98.0000   194       96.0000      100.0000   219277    4.17%
    348   227       97.0000    40       96.0000      100.0000   220752    4.17%
    354   226       99.0000   293       96.0000      100.0000   224759    4.17%
    359   230       98.0000   337       96.0000      100.0000   227834    4.17%
    367   235       97.0000   189       96.0000      100.0000   230496    4.17%
    377   239       97.0000   173       96.0000      100.0000   233332    4.17%
    389   243       97.0000   187       96.0000      100.0000   236415    4.17%
    403   250       97.0000   121       96.0000      100.0000   238787    4.17%
    413   250       98.0000   393       96.0000      100.0000   242695    4.17%
Elapsed time = 75.69 sec. (90074.32 ticks, tree = 0.31 MB, solutions = 3)
    420   256       97.0000   277       96.0000      100.0000   244371    4.17%
    428   264       97.0000   230       96.0000      100.0000   246161    4.17%
    440   268       97.0000   203       96.0000      100.0000   249450    4.17%
    456   268       97.0000   166       96.0000      100.0000   253020    4.17%
    473   271       97.0000   165       96.0000      100.0000   256453    4.17%
    486   276      100.0000   221       96.0000      100.0000   259423    4.17%
    490   279      100.0000   217       96.0000      100.0000   263856    4.17%
    494   281      100.0000   302       96.0000      100.0000   268454    4.17%
    499   285      100.0000   226       96.0000      100.0000   271574    4.17%
    504   289      100.0000   244       96.0000      100.0000   275124    4.17%
Elapsed time = 84.94 sec. (101152.47 ticks, tree = 0.37 MB, solutions = 3)
    509   293       99.0000   308       96.0000      100.0000   278057    4.17%
    515   297      100.0000   272       96.0000      100.0000   282226    4.17%
    520   301       98.8667   206       96.0000      100.0000   285278    4.17%
    525   305      100.0000   152       96.0000      100.0000   289290    4.17%
    529   308       99.2500   296       96.0000      100.0000   292880    4.17%
    534   311       98.8333   291       96.0000      100.0000   296570    4.17%
    539   314       99.4545   289       96.0000      100.0000   300866    4.17%
    544   317       99.0000   273       96.0000      100.0000   304509    4.17%
    550   323       99.0000   204       96.0000      100.0000   306502    4.17%
    557   327       98.0000   274       96.0000      100.0000   310300    4.17%
Elapsed time = 93.53 sec. (111942.31 ticks, tree = 0.41 MB, solutions = 3)
    562   330       98.0000   254       96.0000      100.0000   312377    4.17%
    569   334       99.0000   165       96.0000      100.0000   316203    4.17%
    576   339       98.0000   225       96.0000      100.0000   320224    4.17%
    583   345       98.0000   203       96.0000      100.0000   326490    4.17%
    594   353       97.0000    80       96.0000      100.0000   329437    4.17%
    609   358       97.0000    62       96.0000      100.0000   332061    4.17%
    620   360       99.0000   237       96.0000      100.0000   335858    4.17%
    627   367       99.0000   246       96.0000      100.0000   337949    4.17%
    633   372       98.0000   305       96.0000      100.0000   340649    4.17%
    661   386       99.0000   301       96.0000      100.0000   350133    4.17%
Elapsed time = 105.08 sec. (125090.71 ticks, tree = 0.48 MB, solutions = 3)
    711   394    infeasible             96.0000      100.0000   364098    4.17%
    775   400      100.0000   157       96.0000      100.0000   377373    4.17%
    809   420    infeasible             96.0000      100.0000   384992    4.17%
    845   437       97.0000   200       96.0000      100.0000   395706    4.17%
    871   450       99.0000   181       96.0000      100.0000   409532    4.17%
    889   465       99.0000   192       96.0000      100.0000   421063    4.17%
    913   483       99.0000   216       96.0000      100.0000   432086    4.17%
    950   508       98.0000   217       96.0000      100.0000   441901    4.17%
    956   511       99.0000   193       96.0000      100.0000   445230    4.17%

Performing restart 1

Repeating presolve.
Tried aggregator 1 time.
MIP Presolve eliminated 0 rows and 96 columns.
MIP Presolve modified 7370 coefficients.
Reduced MIP has 613 rows, 2504 columns, and 24326 nonzeros.
Reduced MIP has 2504 binaries, 0 generals, 0 SOSs, and 0 indicators.
Presolve time = 0.02 sec. (22.20 ticks)
Tried aggregator 1 time.
Reduced MIP has 613 rows, 2504 columns, and 24326 nonzeros.
Reduced MIP has 2504 binaries, 0 generals, 0 SOSs, and 0 indicators.
Presolve time = 0.02 sec. (16.67 ticks)
Represolve time = 0.10 sec. (80.78 ticks)
    959     0      100.0000   463       96.0000      Cuts: 12   451062    4.17%
    959     0      100.0000   487       96.0000      Cuts: 13   453695    4.17%
    959     0      100.0000   488       96.0000      Cuts: 24   456031    4.17%
    959     0       99.9600   557       96.0000      Cuts: 20   460780    4.12%
    959     0       99.0000   515       96.0000     Cuts: 148   462404    3.12%
    959     0       99.0000   550       96.0000      Cuts: 98   464277    3.12%
    959     0       99.0000   376       96.0000       Cuts: 7   464775    3.12%
    959     0       99.0000   401       96.0000     Cuts: 127   465463    3.12%
    959     2       99.0000   259       96.0000       99.0000   465463    3.12%
Elapsed time = 170.05 sec. (197118.27 ticks, tree = 0.01 MB, solutions = 3)
    974    16       99.0000   333       96.0000       99.0000   483199    3.12%
    991    30       99.0000   143       96.0000       99.0000   502574    3.12%
   1017    36    infeasible             96.0000       99.0000   523576    3.12%
   1043    43       99.0000   186       96.0000       99.0000   541420    3.12%
   1070    54    infeasible             96.0000       99.0000   557096    3.12%
   1092    61    infeasible             96.0000       99.0000   580201    3.12%
   1115    71    infeasible             96.0000       99.0000   600112    3.12%
   1174    53       99.0000   279       96.0000       99.0000   622500    3.12%
   1200    71       97.0000   191       96.0000       99.0000   637896    3.12%
   1225    90       98.8704   268       96.0000       99.0000   657326    3.12%
Elapsed time = 206.19 sec. (235868.66 ticks, tree = 0.19 MB, solutions = 3)
   1247   107       97.0000   191       96.0000       99.0000   680893    3.12%
   1278   115       98.0000   179       96.0000       99.0000   708049    3.12%
   1305   134       98.0000   247       96.0000       99.0000   722089    3.12%
   1333   150       97.0000    88       96.0000       99.0000   743787    3.12%
   1360   155    infeasible             96.0000       99.0000   770569    3.12%
   1395   161       99.0000   185       96.0000       99.0000   800330    3.12%
   1430   181       98.0000   197       96.0000       99.0000   814161    3.12%
   1465   197       98.0000   191       96.0000       99.0000   831043    3.12%
   1501   200       98.0000   221       96.0000       99.0000   865492    3.12%
   1529   211    infeasible             96.0000       99.0000   888968    3.12%
Elapsed time = 244.57 sec. (275175.47 ticks, tree = 0.82 MB, solutions = 3)
   1564   220       98.0000   215       96.0000       99.0000   918338    3.12%
   1590   224       97.0000   249       96.0000       99.0000   947628    3.12%
   1617   227    infeasible             96.0000       99.0000   975939    3.12%
   1649   231       97.0000   165       96.0000       99.0000  1007526    3.12%
   1681   237       97.0000   137       96.0000       99.0000  1029802    3.12%
   1710   251       98.0000   230       96.0000       99.0000  1052334    3.12%
   1741   267       98.0000   205       96.0000       99.0000  1071768    3.12%
   1763   275       97.0000   141       96.0000       99.0000  1092921    3.12%
   1793   284       97.0000   201       96.0000       99.0000  1116616    3.12%
   1814   295       98.0000   302       96.0000       99.0000  1138756    3.12%
Elapsed time = 282.68 sec. (313976.77 ticks, tree = 1.20 MB, solutions = 3)
   1831   311       98.0000   340       96.0000       99.0000  1161307    3.12%
   1856   326       97.0000   171       96.0000       99.0000  1183699    3.12%
   1886   342       97.0000   201       96.0000       99.0000  1204833    3.12%
*  1900   208      integral     0       97.0000       99.0000  1221357    2.06%
   1908   210    infeasible             97.0000       99.0000  1236436    2.06%
   1925   217       99.0000   240       97.0000       99.0000  1261363    2.06%
   1944   223       98.0000   291       97.0000       99.0000  1287067    2.06%
   1963   229       98.0000   264       97.0000       99.0000  1312162    2.06%
   1985   229    infeasible             97.0000       99.0000  1347139    2.06%
   2006   231       98.0000   155       97.0000       99.0000  1381372    2.06%
   2026   234       98.0000   234       97.0000       99.0000  1412220    2.06%
Elapsed time = 321.43 sec. (353904.34 ticks, tree = 1.15 MB, solutions = 4)
   2040   238       98.0000   236       97.0000       99.0000  1437213    2.06%
   2068   248       98.0000   214       97.0000       99.0000  1463728    2.06%
   2085   253    infeasible             97.0000       99.0000  1486276    2.06%
   2100   258       98.0000   257       97.0000       99.0000  1515234    2.06%
   2123   259       98.0000   211       97.0000       99.0000  1546248    2.06%
   2139   262       98.0000   339       97.0000       99.0000  1576268    2.06%
   2156   264       98.0000   184       97.0000       99.0000  1602328    2.06%
   2173   262    infeasible             97.0000       99.0000  1634358    2.06%
   2190   268       98.0000   209       97.0000       99.0000  1660745    2.06%
   2212   277       98.0000   310       97.0000       99.0000  1684488    2.06%
Elapsed time = 359.60 sec. (393170.60 ticks, tree = 1.37 MB, solutions = 4)
   2233   296       98.0000   235       97.0000       99.0000  1701104    2.06%
   2258   311       98.0000   179       97.0000       99.0000  1718970    2.06%
   2285   322       98.0000   155       97.0000       99.0000  1740539    2.06%
   2301   327       98.0000    58       97.0000       99.0000  1767083    2.06%
   2325   330    infeasible             97.0000       99.0000  1794128    2.06%
   2352   336       98.0000   233       97.0000       99.0000  1822528    2.06%
   2374   343       98.0000   198       97.0000       99.0000  1844311    2.06%
   2390   352       99.0000   209       97.0000       99.0000  1867449    2.06%
   2405   363       98.0000   253       97.0000       99.0000  1889865    2.06%
   2425   371       99.0000   180       97.0000       99.0000  1912810    2.06%
Elapsed time = 397.20 sec. (432441.42 ticks, tree = 1.96 MB, solutions = 4)
   2441   379       98.0000   242       97.0000       99.0000  1940352    2.06%
   2458   386        cutoff             97.0000       99.0000  1967349    2.06%
   2468   393       98.0000   172       97.0000       99.0000  1979189    2.06%
   2487   400    infeasible             97.0000       99.0000  2006943    2.06%
   2501   401    infeasible             97.0000       99.0000  2040828    2.06%
   2519   403       98.0000   179       97.0000       99.0000  2072072    2.06%
   2533   403       98.0000   207       97.0000       99.0000  2108801    2.06%
   2565   411       98.0000   199       97.0000       99.0000  2129806    2.06%
   2597   418        cutoff             97.0000       99.0000  2155202    2.06%
   2621   420    infeasible             97.0000       99.0000  2185630    2.06%
Elapsed time = 436.43 sec. (471643.85 ticks, tree = 2.26 MB, solutions = 4)
   2640   425    infeasible             97.0000       99.0000  2218002    2.06%
   2659   426       98.0000   182       97.0000       99.0000  2243340    2.06%
   2682   425    infeasible             97.0000       99.0000  2277856    2.06%
   2708   432    infeasible             97.0000       99.0000  2306195    2.06%
   2733   439       98.0000   199       97.0000       99.0000  2336991    2.06%
   2751   442    infeasible             97.0000       99.0000  2366188    2.06%
   2770   443       98.0000   134       97.0000       99.0000  2400585    2.06%
   2794   444       98.0000   136       97.0000       99.0000  2437574    2.06%
   2811   448    infeasible             97.0000       99.0000  2465689    2.06%
   2833   450    infeasible             97.0000       99.0000  2497042    2.06%
Elapsed time = 481.17 sec. (516749.90 ticks, tree = 2.42 MB, solutions = 4)
   2856   453    infeasible             97.0000       99.0000  2529292    2.06%
   2882   452    infeasible             97.0000       99.0000  2550676    2.06%
   2898   466       99.0000   231       97.0000       99.0000  2570638    2.06%
   2917   469        cutoff             97.0000       99.0000  2595705    2.06%
   2935   470    infeasible             97.0000       99.0000  2625418    2.06%
   2957   467        cutoff             97.0000       99.0000  2656901    2.06%
   2975   473       98.0000   207       97.0000       99.0000  2682183    2.06%
   2991   477       98.0000   219       97.0000       99.0000  2711552    2.06%
   3013   478       98.0000   349       97.0000       99.0000  2736809    2.06%
   3041   482    infeasible             97.0000       99.0000  2765005    2.06%
Elapsed time = 519.38 sec. (555917.08 ticks, tree = 2.52 MB, solutions = 4)
   3072   490       98.0000   275       97.0000       99.0000  2791586    2.06%
   3096   490    infeasible             97.0000       99.0000  2819655    2.06%
   3116   495       98.0000   183       97.0000       99.0000  2849122    2.06%
   3139   502    infeasible             97.0000       99.0000  2875501    2.06%
   3157   513       98.0000   220       97.0000       99.0000  2899362    2.06%
   3176   519    infeasible             97.0000       99.0000  2929108    2.06%
   3196   520       98.0000   288       97.0000       99.0000  2959562    2.06%
   3222   520    infeasible             97.0000       99.0000  2987916    2.06%
   3251   525       98.0000   212       97.0000       99.0000  3014898    2.06%
Starting limited solution polishing.
   3259   527       98.0000   170       97.0000       99.0000  3020452    2.06%
Elapsed time = 560.93 sec. (597859.83 ticks, tree = 2.78 MB, solutions = 4)
   3291   528    infeasible             97.0000       99.0000  3053780    2.06%
   3317   532    infeasible             97.0000       99.0000  3084544    2.06%
   3342   532       98.0000   251       97.0000       99.0000  3123552    2.06%
   3359   536       98.0000   185       97.0000       99.0000  3147824    2.06%
   3372   537       98.0000   195       97.0000       99.0000  3181997    2.06%
   3393   541    infeasible             97.0000       99.0000  3212416    2.06%
   3415   546       99.0000   177       97.0000       99.0000  3241703    2.06%
   3447   559    infeasible             97.0000       99.0000  3264539    2.06%
   3480   560       98.0000   204       97.0000       99.0000  3300673    2.06%

Clique cuts applied:  75
Cover cuts applied:  2
Zero-half cuts applied:  57
Gomory fractional cuts applied:  1

Root node processing (before b&c):
  Real time             =   16.81 sec. (19674.61 ticks)
Sequential b&c:
  Real time             =  582.88 sec. (616958.53 ticks)
                          ------------
Total (root+branch&cut) =  599.69 sec. (636633.14 ticks)
Primal:	97
Dual:	99
Status:	Feasible
Time:	599.69
Sequence:
	15
	6
	16
	12
	1
	8
	1
	9
	16
	4
	18
	8
	1
	23
	0
	4
	17
	7
	19
	6
	3
	6
	1
	13
	17
	4
	0
	4
	3
	22
	1
	7
	1
	6
	16
	12
	0
	4
	15
	24
	1
	9
	10
	4
	15
	24
	1
	12
	0
	6
	19
	7
	1
	6
	5
	4
	19
	7
	17
	4
	0
	12
	4
	0
	14
	12
	0
	4
	17
	13
	1
	6
	3
	6
	19
	7
	17
	4
	5
	4
	4
	20
	12
	1
	8
	18
	14
	10
	9
	10
	4
	2
	10
	4
	10
	9
	21
